lp_solve/compute_ilp/result/expint.res
set_XLI: Successfully loaded './xli_CPLEX'

Value of objective function: 4466

Actual values of the variables:
dSta_0                          1
d0_19                           1
d1_2.v0                         1
d1_2.v1                        98
d1_3.v0                         0
d1_3.v1                         0
d2_3.v0                         1
d2_3.v1                        98
d3_4.v0                         1
d3_4.v1                        98
d3_6.v0                         0
d3_6.v1                         0
d4_5.v0                         1
d4_5.v1                        98
d4_6.v0                         0
d4_6.v1                         0
d5_6.v0                         1
d5_6.v1                        98
d6_7.v0                         0
d6_7.v1                         0
d6_13.v0                        1
d6_13.v1                       98
d7_8.v0                         0
d7_8.v1                         0
d7_9.v0                         0
d7_9.v1                         0
d8_9.v0                         0
d8_9.v1                         0
d9_10.v0                        0
d9_10.v1                        0
d9_12.v0                        0
d9_12.v1                        0
d10_11.v0                       0
d10_11.v1                       0
d10_12.v0                       0
d10_12.v1                       0
d11_12.v0                       0
d11_12.v1                       0
d12_16.v0                       0
d12_16.v1                       0
d13_15.v0                       0
d13_15.v1                       0
d13_18.v0                       1
d13_18.v1                      98
d14_15.v00                      1
d14_15.v01                      0
d14_15.v10                     98
d14_15.v11                      0
d14_14.v00                      0
d14_14.v01                      0
d14_14.v10                      0
d14_14.v11                      0
d15_16.v0                       1
d15_16.v1                      98
d16_17.v0                       0
d16_17.v1                       1
d16_1.v0                        1
d16_1.v1                       97
d18_14.v0                       1
d18_14.v1                      98
d18_15.v0                       0
d18_15.v1                       0
d19_20                          1
d19_21                          0
d20_21                          1
d21_22                          1
d21_24                          0
d22_23                          1
d22_24                          0
d23_24                          1
d24_25                          0
d24_31                          1
d25_26                          0
d25_27                          0
d26_27                          0
d27_28                          0
d27_30                          0
d28_29                          0
d28_30                          0
d29_30                          0
d30_34                          0
d31_33                          0
d31_35                          1
d32_33.v0                       1
d32_33.v1                       0
d32_32.v0                       0
d32_32.v1                       0
d33_34                          1
d34_1                           1
d34_17                          0
d35_32                          1
d35_33                          0
b0                              1
b1                             99
d1_2                           99
d1_3                            0
d16_1                          98
b2                             99
d2_3                           99
b3                             99
d3_4                           99
d3_6                            0
b4                             99
d4_5                           99
d4_6                            0
b5                             99
d5_6                           99
b6                             99
d6_7                            0
d6_13                          99
b7                              0
d7_8                            0
d7_9                            0
b8                              0
d8_9                            0
b9                              0
d9_10                           0
d9_12                           0
b10                             0
d10_11                          0
d10_12                          0
b11                             0
d11_12                          0
b12                             0
d12_16                          0
b13                            99
d13_15                          0
d13_18                         99
b14                            99
d14_15                         99
d14_14                          0
d18_14                         99
b15                            99
d15_16                         99
d18_15                          0
b16                            99
d16_17                          1
b17                             1
b18                            99
b19                             1
b20                             1
b21                             1
b22                             1
b23                             1
b24                             1
b25                             0
b26                             0
b27                             0
b28                             0
b29                             0
b30                             0
b31                             1
b32                             1
d32_33                          1
d32_32                          0
b33                             1
b34                             1
b35                             1
b1.v0                           1
b1.v1                          98
b2.v0                           1
b2.v1                          98
b3.v0                           1
b3.v1                          98
b4.v0                           1
b4.v1                          98
b5.v0                           1
b5.v1                          98
b6.v0                           1
b6.v1                          98
b7.v0                           0
b7.v1                           0
b8.v0                           0
b8.v1                           0
b9.v0                           0
b9.v1                           0
b10.v0                          0
b10.v1                          0
b11.v0                          0
b11.v1                          0
b12.v0                          0
b12.v1                          0
b13.v0                          1
b13.v1                         98
b14.v00                         1
b14.v01                         0
b14.v10                        98
b14.v11                         0
b15.v0                          1
b15.v1                         98
b16.v0                          1
b16.v1                         98
b18.v0                          1
b18.v1                         98
b32.v0                          1
b32.v1                          0
d14_15.v0                       1
d14_15.v1                      98
